p edge 28 112
e 1 7
e 1 24
e 1 25
e 1 26
e 2 1
e 2 7
e 2 10
e 2 15
e 3 13
e 3 15
e 3 18
e 3 23
e 4 6
e 4 9
e 4 22
e 4 24
e 5 2
e 5 11
e 5 14
e 5 20
e 6 7
e 6 10
e 6 13
e 6 13
e 7 1
e 7 5
e 7 18
e 7 23
e 8 4
e 8 13
e 8 19
e 8 19
e 9 4
e 9 7
e 9 14
e 9 26
e 10 9
e 10 15
e 10 22
e 10 22
e 11 5
e 11 18
e 11 20
e 11 21
e 12 15
e 12 15
e 12 16
e 12 27
e 13 6
e 13 12
e 13 17
e 13 21
e 14 1
e 14 16
e 14 18
e 14 23
e 15 23
e 15 24
e 15 25
e 15 26
e 16 2
e 16 4
e 16 10
e 16 27
e 17 11
e 17 11
e 17 14
e 17 18
e 18 2
e 18 8
e 18 13
e 18 14
e 19 5
e 19 7
e 19 10
e 19 20
e 20 2
e 20 3
e 20 4
e 20 25
e 21 6
e 21 8
e 21 23
e 21 26
e 22 6
e 22 13
e 22 20
e 22 20
e 23 9
e 23 9
e 23 14
e 23 26
e 24 8
e 24 10
e 24 10
e 24 13
e 25 3
e 25 7
e 25 17
e 25 17
e 26 3
e 26 15
e 26 16
e 26 28
e 27 10
e 27 14
e 27 25
e 27 28
e 28 6
e 28 23
e 28 26
e 28 27
